JulietBench/Juliet_Based_Patch_Bench/FFmpeg/CWE-189-Numeric-Errors/CVE_2011_3362_91d5da9321c52e8197fb14046ebb335f3e6ff4a0/Resultdecode_residual_block_patch2EQ.smt2
; benchmark generated from python API
(set-info :status unknown)
(declare-fun R () (_ BitVec 32))
(declare-fun rdi () (_ BitVec 64))
(assert
 (let (($x52 (= (_ bv1 32) R)))
 (let ((?x6 ((_ extract 31 0) rdi)))
 (let (($x11 (bvsge (_ bv58 32) ?x6)))
 (let (($x45 (and $x11 $x52)))
 (let ((?x62 ((_ extract 0 0) rdi)))
 (let ((?x69 (concat (_ bv0 31) ?x62)))
 (let ((?x58 (bvnot ?x62)))
 (let ((?x71 (bvmul (_ bv4294967295 32) ?x69)))
 (let ((?x67 ((_ extract 31 1) ?x71)))
 (let ((?x75 (concat ?x67 ?x58)))
 (let ((?x78 (bvadd ?x75 ?x69)))
 (let (($x60 (= R ?x78)))
 (let (($x41 (bvslt (_ bv58 32) ?x6)))
 (let (($x65 (and $x41 $x60)))
 (let (($x7 (or $x65 $x45)))
 (and $x7 $x52)))))))))))))))))
(check-sat)
